Traveling Salesman Problem/TSP_generados/Aleatorio1621105127_19.tsp
NAME: Aleatorio1621105127_19.tsp
COMMENT: Randomly generated scenario
TYPE: TSP
DIMENSION: 19
EDGE_WEIGHT_TYPE: ATT
NODE_COORD_SECTION
1 28.28 41.39
2 18.14 48.74
3 10.62 42.15
4 39.48 48.21
5 30.3 14.95
6 20.92 14.36
7 42.16 12.62
8 8.29 7.05
9 32.76 15.63
10 0.66 39.97
11 27.95 46.4
12 28.45 28.05
13 31.43 0.26
14 5.55 39.45
15 10.74 22.51
16 6.23 22.95
17 6.92 8.84
18 43.24 17.07
19 40.23 44.78
