Traveling Salesman Problem/TSP_generados/Aleatorio1621105127_19.opt.tour
NAME: Aleatorio1621105127_19.opt.tour
COMMENT: Optimal solution for Aleatorio1621105127_19 (190.06477574293282)
TYPE: TOUR
DIMENSION: 19
TOUR_SECTION
1 19 4 11 2 3 14 10 16 15 17 8 6 13 7 18 9 5 12
-1
EOF
